qp.log

Gurobi 10.0.3 (mac64[rosetta2]) logging started Fri Oct 27 18:31:50 2023

Set parameter Username
Academic license - for non-commercial use only - expires 2024-10-25

Gurobi 10.0.3 (mac64[rosetta2]) logging started Fri Oct 27 18:32:32 2023

Set parameter Username
Academic license - for non-commercial use only - expires 2024-10-25

Gurobi 10.0.3 (mac64[rosetta2]) logging started Fri Oct 27 18:32:33 2023

Set parameter Username
Academic license - for non-commercial use only - expires 2024-10-25

Gurobi 10.0.3 (mac64[rosetta2]) logging started Fri Oct 27 18:32:37 2023

Set parameter Username
Academic license - for non-commercial use only - expires 2024-10-25

Gurobi 10.0.3 (mac64[rosetta2]) logging started Fri Oct 27 18:35:26 2023

Set parameter Username
Academic license - for non-commercial use only - expires 2024-10-25

Gurobi 10.0.3 (mac64[rosetta2]) logging started Fri Oct 27 18:39:09 2023

Set parameter Username
Academic license - for non-commercial use only - expires 2024-10-25
Gurobi Optimizer version 10.0.3 build v10.0.3rc0 (mac64[rosetta2])

CPU model: Apple M1 Max
Thread count: 10 physical cores, 10 logical processors, using up to 10 threads

Optimize a model with 5 rows, 3 columns and 8 nonzeros
Model fingerprint: 0x835ec6cd
Model has 5 quadratic objective terms
Coefficient statistics:
  Matrix range     [1e+00, 3e+00]
  Objective range  [2e+00, 2e+00]
  QObjective range [2e+00, 2e+00]
  Bounds range     [0e+00, 0e+00]
  RHS range        [1e+00, 4e+00]
Presolve removed 3 rows and 0 columns
Presolve time: 0.00s
Presolved: 2 rows, 3 columns, 5 nonzeros
Presolved model has 5 quadratic objective terms
Ordering time: 0.00s

Barrier statistics:
 Free vars  : 2
 AA' NZ     : 6.000e+00
 Factor NZ  : 1.000e+01
 Factor Ops : 3.000e+01 (less than 1 second per iteration)
 Threads    : 1

                  Objective                Residual
Iter       Primal          Dual         Primal    Dual     Compl     Time
   0   1.68862999e+05 -1.66862803e+05  1.50e+03 4.63e-07  9.99e+05     0s
   1   3.32288030e+05 -3.31121401e+05  1.50e-03 4.55e-13  1.33e+05     0s
   2   4.88215027e+04 -4.83744738e+04  1.50e-09 4.26e-14  1.94e+04     0s
   3   7.20552197e+03 -7.03403484e+03  4.97e-14 1.42e-14  2.85e+03     0s
   4   1.07582166e+03 -1.00982226e+03  1.42e-14 2.13e-14  4.17e+02     0s
   5   1.65319400e+02 -1.39657698e+02  3.55e-15 8.88e-16  6.10e+01     0s
   6   2.72141305e+01 -1.68504217e+01  1.33e-15 5.33e-15  8.81e+00     0s
   7   5.34776479e+00 -4.13214640e-01  4.44e-16 4.44e-16  1.15e+00     0s
   8   2.27046251e+00  2.04615758e+00  2.22e-16 6.66e-16  4.49e-02     0s
   9   2.11217859e+00  2.11101837e+00  8.88e-15 2.22e-16  2.32e-04     0s
  10   2.11111218e+00  2.11111102e+00  8.88e-16 1.07e-16  2.32e-07     0s
  11   2.11111111e+00  2.11111111e+00  4.00e-15 2.22e-16  2.32e-10     0s

Barrier solved model in 11 iterations and 0.01 seconds (0.00 work units)
Optimal objective 2.11111111e+00


Gurobi 10.0.3 (mac64[rosetta2]) logging started Sun Nov  5 22:33:05 2023

Set parameter Username
Academic license - for non-commercial use only - expires 2024-10-25
Gurobi Optimizer version 10.0.3 build v10.0.3rc0 (mac64[rosetta2])

CPU model: Apple M1 Max
Thread count: 10 physical cores, 10 logical processors, using up to 10 threads

Optimize a model with 5 rows, 3 columns and 8 nonzeros
Model fingerprint: 0x835ec6cd
Model has 5 quadratic objective terms
Coefficient statistics:
  Matrix range     [1e+00, 3e+00]
  Objective range  [2e+00, 2e+00]
  QObjective range [2e+00, 2e+00]
  Bounds range     [0e+00, 0e+00]
  RHS range        [1e+00, 4e+00]
Presolve removed 3 rows and 0 columns
Presolve time: 0.01s
Presolved: 2 rows, 3 columns, 5 nonzeros
Presolved model has 5 quadratic objective terms
Ordering time: 0.00s

Barrier statistics:
 Free vars  : 2
 AA' NZ     : 6.000e+00
 Factor NZ  : 1.000e+01
 Factor Ops : 3.000e+01 (less than 1 second per iteration)
 Threads    : 1

                  Objective                Residual
Iter       Primal          Dual         Primal    Dual     Compl     Time
   0   1.68862999e+05 -1.66862803e+05  1.50e+03 4.63e-07  9.99e+05     0s
   1   3.32288030e+05 -3.31121401e+05  1.50e-03 4.55e-13  1.33e+05     0s
   2   4.88215027e+04 -4.83744738e+04  1.50e-09 4.26e-14  1.94e+04     0s
   3   7.20552197e+03 -7.03403484e+03  4.97e-14 1.42e-14  2.85e+03     0s
   4   1.07582166e+03 -1.00982226e+03  1.42e-14 2.13e-14  4.17e+02     0s
   5   1.65319400e+02 -1.39657698e+02  3.55e-15 8.88e-16  6.10e+01     0s
   6   2.72141305e+01 -1.68504217e+01  1.33e-15 5.33e-15  8.81e+00     0s
   7   5.34776479e+00 -4.13214640e-01  4.44e-16 4.44e-16  1.15e+00     0s
   8   2.27046251e+00  2.04615758e+00  2.22e-16 6.66e-16  4.49e-02     0s
   9   2.11217859e+00  2.11101837e+00  8.88e-15 2.22e-16  2.32e-04     0s
  10   2.11111218e+00  2.11111102e+00  8.88e-16 1.07e-16  2.32e-07     0s
  11   2.11111111e+00  2.11111111e+00  4.00e-15 2.22e-16  2.32e-10     0s

Barrier solved model in 11 iterations and 0.01 seconds (0.00 work units)
Optimal objective 2.11111111e+00


Gurobi 10.0.3 (mac64[rosetta2]) logging started Sun Nov  5 22:41:24 2023

Set parameter Username
Academic license - for non-commercial use only - expires 2024-10-25

Gurobi 10.0.3 (mac64[rosetta2]) logging started Sun Nov  5 22:50:16 2023

Set parameter Username
Academic license - for non-commercial use only - expires 2024-10-25

Gurobi 10.0.3 (mac64[rosetta2]) logging started Fri Nov 17 11:20:01 2023

Set parameter Username
Academic license - for non-commercial use only - expires 2024-10-25
Gurobi Optimizer version 10.0.3 build v10.0.3rc0 (mac64[rosetta2])

CPU model: Apple M1 Max
Thread count: 10 physical cores, 10 logical processors, using up to 10 threads

Optimize a model with 5 rows, 3 columns and 8 nonzeros
Model fingerprint: 0x835ec6cd
Model has 5 quadratic objective terms
Coefficient statistics:
  Matrix range     [1e+00, 3e+00]
  Objective range  [2e+00, 2e+00]
  QObjective range [2e+00, 2e+00]
  Bounds range     [0e+00, 0e+00]
  RHS range        [1e+00, 4e+00]
Presolve removed 3 rows and 0 columns
Presolve time: 0.01s
Presolved: 2 rows, 3 columns, 5 nonzeros
Presolved model has 5 quadratic objective terms
Ordering time: 0.00s

Barrier statistics:
 Free vars  : 2
 AA' NZ     : 6.000e+00
 Factor NZ  : 1.000e+01
 Factor Ops : 3.000e+01 (less than 1 second per iteration)
 Threads    : 1

                  Objective                Residual
Iter       Primal          Dual         Primal    Dual     Compl     Time
   0   1.68862999e+05 -1.66862803e+05  1.50e+03 4.63e-07  9.99e+05     0s
   1   3.32288030e+05 -3.31121401e+05  1.50e-03 4.55e-13  1.33e+05     0s
   2   4.88215027e+04 -4.83744738e+04  1.50e-09 4.26e-14  1.94e+04     0s
   3   7.20552197e+03 -7.03403484e+03  4.97e-14 1.42e-14  2.85e+03     0s
   4   1.07582166e+03 -1.00982226e+03  1.42e-14 2.13e-14  4.17e+02     0s
   5   1.65319400e+02 -1.39657698e+02  3.55e-15 8.88e-16  6.10e+01     0s
   6   2.72141305e+01 -1.68504217e+01  1.33e-15 5.33e-15  8.81e+00     0s
   7   5.34776479e+00 -4.13214640e-01  4.44e-16 4.44e-16  1.15e+00     0s
   8   2.27046251e+00  2.04615758e+00  2.22e-16 6.66e-16  4.49e-02     0s
   9   2.11217859e+00  2.11101837e+00  8.88e-15 2.22e-16  2.32e-04     0s
  10   2.11111218e+00  2.11111102e+00  8.88e-16 1.07e-16  2.32e-07     0s
  11   2.11111111e+00  2.11111111e+00  4.00e-15 2.22e-16  2.32e-10     0s

Barrier solved model in 11 iterations and 0.01 seconds (0.00 work units)
Optimal objective 2.11111111e+00

